objective value:                    0.999719402093292
h-1,0                                            0.05 	(obj:0)
h-1,2                                            0.05 	(obj:0)
h-1,5                                            0.05 	(obj:0)
h-1,8                                            0.05 	(obj:0)
h-1,10                                           0.05 	(obj:0)
h-1,12                                           0.05 	(obj:0)
h-1,13                                           0.05 	(obj:0)
h-1,14                                           0.05 	(obj:0)
h-1,15                                           0.05 	(obj:0)
h-1,19                                           0.05 	(obj:0)
h-1,23                                           0.05 	(obj:0)
h-1,24                                           0.05 	(obj:0)
h-1,26                                           0.05 	(obj:0)
h-1,34                                           0.05 	(obj:0)
h-1,35                                           0.05 	(obj:0)
h-1,36                                           0.05 	(obj:0)
h-1,37                                           0.05 	(obj:0)
h-1,39                                           0.05 	(obj:0)
h-1,40                                           0.05 	(obj:0)
h-1,41                                           0.05 	(obj:0)
h-1,42                                           0.05 	(obj:0)
h-1,45                                           0.05 	(obj:0)
h-1,49                                           0.05 	(obj:0)
h-1,63                                           0.05 	(obj:0)
h-1,74                                           0.05 	(obj:0)
h-1,78                             0.0248383226511901 	(obj:0)
h-1,80                            0.00502824980718163 	(obj:0)
h-1,85                                           0.05 	(obj:0)
h-1,89                                           0.05 	(obj:0)
h-1,91                            0.00223260299831449 	(obj:0)
h-1,101                                          0.05 	(obj:0)
h-1,105                                          0.05 	(obj:0)
h-1,107                                          0.05 	(obj:0)
h-1,108                                          0.05 	(obj:0)
h-1,109                                          0.05 	(obj:0)
h-1,113                                          0.05 	(obj:0)
h-1,114                                          0.05 	(obj:0)
h-1,115                                          0.05 	(obj:0)
h-1,118                                          0.05 	(obj:0)
h-1,120                                          0.05 	(obj:0)
h-1,121                                          0.05 	(obj:0)
h-1,123                                          0.05 	(obj:0)
h-1,125                                          0.05 	(obj:0)
h-1,128                            0.0990196138620377 	(obj:0)
h-1,129                                             1 	(obj:0)
h-1,130                             0.377450984716415 	(obj:0)
h-1,131                                          0.05 	(obj:0)
h-1,132                                          0.05 	(obj:0)
h-1,133                                          0.05 	(obj:0)
h-1,136                                          0.05 	(obj:0)
h-1,145                                          0.05 	(obj:0)
h-1,148                                          0.05 	(obj:0)
h-1,150                                          0.05 	(obj:0)
h-1,151                                          0.05 	(obj:0)
h-1,152                                          0.05 	(obj:0)
h-1,153                                          0.05 	(obj:0)
h-1,156                             0.291176480054855 	(obj:0)
h-1,157                             0.938235294818878 	(obj:0)
h-1,158                             0.271568638086319 	(obj:0)
h-1,165                                          0.05 	(obj:0)
h-1,172                                          0.05 	(obj:0)
h-1,173                                          0.05 	(obj:0)
h-1,176                                          0.05 	(obj:0)
h-1,179                                          0.05 	(obj:0)
h-1,180                                          0.05 	(obj:0)
h-1,181                                          0.05 	(obj:0)
h-1,182                                          0.05 	(obj:0)
h-1,183                                          0.05 	(obj:0)
h-1,184                             0.579411792755127 	(obj:0)
h-1,185                             0.995098042488098 	(obj:0)
h-1,186                                          0.05 	(obj:0)
h-1,187                                          0.05 	(obj:0)
h-1,189                                          0.05 	(obj:0)
h-1,190                                          0.05 	(obj:0)
h-1,195                                          0.05 	(obj:0)
h-1,196                                          0.05 	(obj:0)
h-1,198                                          0.05 	(obj:0)
h-1,199                                          0.05 	(obj:0)
h-1,202                                          0.05 	(obj:0)
h-1,203                                          0.05 	(obj:0)
h-1,205                                          0.05 	(obj:0)
h-1,206                                          0.05 	(obj:0)
h-1,208                                          0.05 	(obj:0)
h-1,209                                          0.05 	(obj:0)
h-1,210                                          0.05 	(obj:0)
h-1,211                             0.226470592617989 	(obj:0)
h-1,212                                             1 	(obj:0)
h-1,213                             0.638235318660736 	(obj:0)
h-1,214                                          0.05 	(obj:0)
h-1,223                                          0.05 	(obj:0)
h-1,224                                          0.05 	(obj:0)
h-1,226                                          0.05 	(obj:0)
h-1,227                                          0.05 	(obj:0)
h-1,229                                          0.05 	(obj:0)
h-1,232                                          0.05 	(obj:0)
h-1,235                                          0.05 	(obj:0)
h-1,236                                          0.05 	(obj:0)
h-1,237                                          0.05 	(obj:0)
h-1,238                                          0.05 	(obj:0)
h-1,239                             0.379411774873734 	(obj:0)
h-1,240                                             1 	(obj:0)
h-1,241                              0.29705882370472 	(obj:0)
h-1,242                                          0.05 	(obj:0)
h-1,244                                          0.05 	(obj:0)
h-1,247                                          0.05 	(obj:0)
h-1,255                                          0.05 	(obj:0)
h-1,258                                          0.05 	(obj:0)
h-1,259                                          0.05 	(obj:0)
h-1,260                                          0.05 	(obj:0)
h-1,261                                          0.05 	(obj:0)
h-1,262                                          0.05 	(obj:0)
h-1,264                                          0.05 	(obj:0)
h-1,265                                          0.05 	(obj:0)
h-1,266                                          0.05 	(obj:0)
h-1,267                             0.842156875133514 	(obj:0)
h-1,268                             0.824509811401367 	(obj:0)
h-1,269                            0.0931372560560703 	(obj:0)
h-1,270                                          0.05 	(obj:0)
h-1,271                                          0.05 	(obj:0)
h-1,272                                          0.05 	(obj:0)
h-1,275                                          0.05 	(obj:0)
h-1,281                                          0.05 	(obj:0)
h-1,283                                          0.05 	(obj:0)
h-1,285                                          0.05 	(obj:0)
h-1,289                                          0.05 	(obj:0)
h-1,290                                          0.05 	(obj:0)
h-1,291                                          0.05 	(obj:0)
h-1,292                                          0.05 	(obj:0)
h-1,293                                          0.05 	(obj:0)
h-1,294                             0.175490203499794 	(obj:0)
h-1,295                                             1 	(obj:0)
h-1,296                             0.897058832645416 	(obj:0)
h-1,297                                          0.05 	(obj:0)
h-1,298                                          0.05 	(obj:0)
h-1,299                                          0.05 	(obj:0)
h-1,300                                          0.05 	(obj:0)
h-1,301                                          0.05 	(obj:0)
h-1,302                                          0.05 	(obj:0)
h-1,303                                          0.05 	(obj:0)
h-1,304                                          0.05 	(obj:0)
h-1,305                             0.014632356892133 	(obj:0)
h-1,309                                          0.05 	(obj:0)
h-1,316                                          0.05 	(obj:0)
h-1,318                                          0.05 	(obj:0)
h-1,319                                          0.05 	(obj:0)
h-1,320                                          0.05 	(obj:0)
h-1,321                                          0.05 	(obj:0)
h-1,322                             0.322549027204514 	(obj:0)
h-1,323                                             1 	(obj:0)
h-1,324                             0.814705896377564 	(obj:0)
h-1,325                                          0.05 	(obj:0)
h-1,326                                          0.05 	(obj:0)
h-1,327                                          0.05 	(obj:0)
h-1,328                                          0.05 	(obj:0)
h-1,329                                          0.05 	(obj:0)
h-1,330                                          0.05 	(obj:0)
h-1,331                                          0.05 	(obj:0)
h-1,332                                          0.05 	(obj:0)
h-1,336                                          0.05 	(obj:0)
h-1,337                            0.0243936912848072 	(obj:0)
h-1,338                                          0.05 	(obj:0)
h-1,342                                          0.05 	(obj:0)
h-1,343                                          0.05 	(obj:0)
h-1,344                                          0.05 	(obj:0)
h-1,345                                          0.05 	(obj:0)
h-1,346                                          0.05 	(obj:0)
h-1,347                                          0.05 	(obj:0)
h-1,348                                          0.05 	(obj:0)
h-1,350                             0.499019634723663 	(obj:0)
h-1,351                             0.946078431606293 	(obj:0)
h-1,352                             0.251960796117783 	(obj:0)
h-1,353                                          0.05 	(obj:0)
h-1,355                                          0.05 	(obj:0)
h-1,357                                          0.05 	(obj:0)
h-1,358                                          0.05 	(obj:0)
h-1,359                                          0.05 	(obj:0)
h-1,360                                          0.05 	(obj:0)
h-1,368                                          0.05 	(obj:0)
h-1,369                                          0.05 	(obj:0)
h-1,370                                          0.05 	(obj:0)
h-1,371                                          0.05 	(obj:0)
h-1,372                                          0.05 	(obj:0)
h-1,374                                          0.05 	(obj:0)
h-1,375                                          0.05 	(obj:0)
h-1,376                                          0.05 	(obj:0)
h-1,377                             0.173529413342476 	(obj:0)
h-1,378                             0.879411768913269 	(obj:0)
h-1,379                             0.853921580314636 	(obj:0)
h-1,380                            0.0813725508749485 	(obj:0)
h-1,382                                          0.05 	(obj:0)
h-1,384                                          0.05 	(obj:0)
h-1,385                                          0.05 	(obj:0)
h-1,386                                          0.05 	(obj:0)
h-1,387                                          0.05 	(obj:0)
h-1,388                                          0.05 	(obj:0)
h-1,390                                          0.05 	(obj:0)
h-1,393                                          0.05 	(obj:0)
h-1,394                                          0.05 	(obj:0)
h-1,396                                          0.05 	(obj:0)
h-1,397                                          0.05 	(obj:0)
h-1,398                                          0.05 	(obj:0)
h-1,399                                          0.05 	(obj:0)
h-1,401                                          0.05 	(obj:0)
h-1,402                                          0.05 	(obj:0)
h-1,405                             0.436274510622025 	(obj:0)
h-1,406                                          0.95 	(obj:0)
h-1,407                             0.597058844566345 	(obj:0)
h-1,409                                          0.05 	(obj:0)
h-1,412                                          0.05 	(obj:0)
h-1,413                                          0.05 	(obj:0)
h-1,414                                          0.05 	(obj:0)
h-1,415                                          0.05 	(obj:0)
h-1,417                                          0.05 	(obj:0)
h-1,421                                          0.05 	(obj:0)
h-1,422                                          0.05 	(obj:0)
h-1,423                                          0.05 	(obj:0)
h-1,424                                          0.05 	(obj:0)
h-1,427                                          0.05 	(obj:0)
h-1,430                                          0.05 	(obj:0)
h-1,431                                          0.05 	(obj:0)
h-1,432                                          0.05 	(obj:0)
h-1,433                             0.620588254928589 	(obj:0)
h-1,434                             0.946078431606293 	(obj:0)
h-1,435                             0.267647069692612 	(obj:0)
h-1,436                                          0.05 	(obj:0)
h-1,437                                          0.05 	(obj:0)
h-1,438                                          0.05 	(obj:0)
h-1,439                                          0.05 	(obj:0)
h-1,440                                          0.05 	(obj:0)
h-1,443                                          0.05 	(obj:0)
h-1,444                                          0.05 	(obj:0)
h-1,447                                          0.05 	(obj:0)
h-1,448                                          0.05 	(obj:0)
h-1,452                                          0.05 	(obj:0)
h-1,453                                          0.05 	(obj:0)
h-1,455                                          0.05 	(obj:0)
h-1,456                                          0.05 	(obj:0)
h-1,458                                          0.05 	(obj:0)
h-1,459                                          0.05 	(obj:0)
h-1,460                            0.0441176488995552 	(obj:0)
h-1,461                             0.859803926944733 	(obj:0)
h-1,462                             0.793137264251709 	(obj:0)
h-1,464                                          0.05 	(obj:0)
h-1,467                                          0.05 	(obj:0)
h-1,468                                          0.05 	(obj:0)
h-1,475                                          0.05 	(obj:0)
h-1,482                                          0.05 	(obj:0)
h-1,483                                          0.05 	(obj:0)
h-1,485                                          0.05 	(obj:0)
h-1,486                                          0.05 	(obj:0)
h-1,488                             0.520588237047195 	(obj:0)
h-1,489                             0.946078431606293 	(obj:0)
h-1,490                             0.573529434204102 	(obj:0)
h-1,491                                          0.05 	(obj:0)
h-1,492                                          0.05 	(obj:0)
h-1,493                                          0.05 	(obj:0)
h-1,494                                          0.05 	(obj:0)
h-1,498                                          0.05 	(obj:0)
h-1,503                                          0.05 	(obj:0)
h-1,504                                          0.05 	(obj:0)
h-1,512                                          0.05 	(obj:0)
h-1,513                                          0.05 	(obj:0)
h-1,514                                          0.05 	(obj:0)
h-1,515                                          0.05 	(obj:0)
h-1,516                             0.542156887054443 	(obj:0)
h-1,517                             0.946078431606293 	(obj:0)
h-1,518                             0.506862771511078 	(obj:0)
h-1,533                                          0.05 	(obj:0)
h-1,534                                          0.05 	(obj:0)
h-1,537                                          0.05 	(obj:0)
h-1,539                                          0.05 	(obj:0)
h-1,540                                          0.05 	(obj:0)
h-1,544                             0.944117653369904 	(obj:0)
h-1,545                             0.946078431606293 	(obj:0)
h-1,546                             0.208823543787003 	(obj:0)
h-1,555                                          0.05 	(obj:0)
h-1,557                                          0.05 	(obj:0)
h-1,561                                          0.05 	(obj:0)
h-1,563                                          0.05 	(obj:0)
h-1,565                                          0.05 	(obj:0)
h-1,566                                          0.05 	(obj:0)
h-1,570                                          0.05 	(obj:0)
h-1,571                             0.189215686917305 	(obj:0)
h-1,572                             0.934313726425171 	(obj:0)
h-1,573                                             1 	(obj:0)
h-1,574                             0.208823543787003 	(obj:0)
h-1,580                                          0.05 	(obj:0)
h-1,581                                          0.05 	(obj:0)
h-1,586                                          0.05 	(obj:0)
h-1,587                                          0.05 	(obj:0)
h-1,592                                          0.05 	(obj:0)
h-1,593                                          0.05 	(obj:0)
h-1,599                             0.602941203117371 	(obj:0)
h-1,600                                             1 	(obj:0)
h-1,601                             0.753921580314636 	(obj:0)
h-1,602                            0.0617647061124444 	(obj:0)
h-1,612                                          0.05 	(obj:0)
h-1,614                                          0.05 	(obj:0)
h-1,620                                          0.05 	(obj:0)
h-1,625                                          0.05 	(obj:0)
h-1,626                            0.0892156876623631 	(obj:0)
h-1,627                             0.793137264251709 	(obj:0)
h-1,628                                             1 	(obj:0)
h-1,629                             0.424509805440903 	(obj:0)
h-1,636                                          0.05 	(obj:0)
h-1,639                                          0.05 	(obj:0)
h-1,640                                          0.05 	(obj:0)
h-1,647                                          0.05 	(obj:0)
h-1,651                                          0.05 	(obj:0)
h-1,655                             0.826470601558685 	(obj:0)
h-1,656                             0.640196096897125 	(obj:0)
h-1,666                                          0.05 	(obj:0)
h-1,667                                          0.05 	(obj:0)
h-1,673                                          0.05 	(obj:0)
h-1,676                                          0.05 	(obj:0)
h-1,678                                          0.05 	(obj:0)
h-1,685                                          0.05 	(obj:0)
h-1,690                                          0.05 	(obj:0)
h-1,691                                          0.05 	(obj:0)
h-1,692                                          0.05 	(obj:0)
h-1,693                                          0.05 	(obj:0)
h-1,694                                          0.05 	(obj:0)
h-1,695                                          0.05 	(obj:0)
h-1,696                                          0.05 	(obj:0)
h-1,699                                          0.05 	(obj:0)
h-1,702                                          0.05 	(obj:0)
h-1,703                                          0.05 	(obj:0)
h-1,704                                          0.05 	(obj:0)
h-1,705                                          0.05 	(obj:0)
h-1,706                                          0.05 	(obj:0)
h-1,708                                          0.05 	(obj:0)
h-1,709                                          0.05 	(obj:0)
h-1,711                                          0.05 	(obj:0)
h-1,718                                          0.05 	(obj:0)
h-1,721                                          0.05 	(obj:0)
h-1,722                                          0.05 	(obj:0)
h-1,725                                          0.05 	(obj:0)
h-1,727                                          0.05 	(obj:0)
h-1,728                                          0.05 	(obj:0)
h-1,731                                          0.05 	(obj:0)
h-1,733                                          0.05 	(obj:0)
h-1,734                                          0.05 	(obj:0)
h-1,735                                          0.05 	(obj:0)
h-1,736                                          0.05 	(obj:0)
h-1,737                                          0.05 	(obj:0)
h-1,740                                          0.05 	(obj:0)
h-1,741                                          0.05 	(obj:0)
h-1,742                                          0.05 	(obj:0)
h-1,743                                          0.05 	(obj:0)
h-1,744                                          0.05 	(obj:0)
h-1,745                                          0.05 	(obj:0)
h-1,746                                          0.05 	(obj:0)
h-1,747                                          0.05 	(obj:0)
h-1,748                                          0.05 	(obj:0)
h-1,757                                          0.05 	(obj:0)
h-1,765                                          0.05 	(obj:0)
h-1,766                                          0.05 	(obj:0)
h-1,767                                          0.05 	(obj:0)
h-1,768                                          0.05 	(obj:0)
h-1,770                                          0.05 	(obj:0)
h-1,776                                          0.05 	(obj:0)
h-1,777                                          0.05 	(obj:0)
h-1,778                                          0.05 	(obj:0)
h-1,780                                          0.05 	(obj:0)
h-1,782                                          0.05 	(obj:0)
z0,0                                  7.4641833319317 	(obj:0)
a0,0                                 0.99941749615296 	(obj:0)
z0,1                                 1.01192212883926 	(obj:0)
a0,1                                0.733391597060254 	(obj:0)
z0,2                                -16.5814352327397 	(obj:0)
a0,2                             6.90044768138381e-07 	(obj:0)
z0,3                                 20.8683146260352 	(obj:0)
a0,3                                                1 	(obj:0)
z0,4                                -8.76026350467921 	(obj:0)
a0,4                             0.000156818676875695 	(obj:0)
z1,0                                -15.1547608136757 	(obj:0)
a1,0                             1.75687829183778e-09 	(obj:0)
z1,1                                -9.28845387106533 	(obj:0)
a1,1                             8.24794683098159e-05 	(obj:-1)
z1,2                                -11.0011418948814 	(obj:0)
a1,2                             1.64802995581056e-05 	(obj:0)
z1,3                                -6.19887407107331 	(obj:0)
a1,3                              0.00202245492611334 	(obj:0)
z1,4                                -14.9903580854491 	(obj:0)
a1,4                             1.71725334444947e-09 	(obj:0)
z1,5                                -22.7237482083698 	(obj:0)
z1,6                                -32.8191176542658 	(obj:0)
z1,7                                 8.50836809714104 	(obj:0)
a1,7                                0.999801881561602 	(obj:1)
z1,8                                -8.33813877381689 	(obj:0)
a1,8                             0.000238548339130686 	(obj:0)
z1,9                                0.194173459659328 	(obj:0)
a1,9                                0.548396532336701 	(obj:0)
